NAME : pr152.271157.tour
COMMENT : Cost = 31728_271157
COMMENT : Found by LKH [Keld Helsgaun] Thu Nov 16 17:54:30 2017
TYPE : TOUR
DIMENSION : 161
TOUR_SECTION
1
35
161
141
142
143
138
137
100
157
89
139
153
16
33
32
31
30
29
38
28
27
26
25
24
39
23
22
20
21
19
40
18
17
9
8
10
7
11
6
12
5
13
4
14
3
15
2
156
37
42
58
59
64
63
62
61
60
41
84
85
108
109
110
86
107
106
105
83
87
104
111
112
82
43
57
65
66
56
55
44
34
155
45
80
113
117
103
88
67
68
158
81
101
102
118
114
99
90
54
69
70
71
53
52
46
154
36
140
159
78
91
96
121
132
131
147
148
149
130
129
122
123
128
127
151
150
152
126
125
124
93
94
77
76
50
49
48
160
47
51
73
75
74
92
95
116
115
120
133
134
146
145
144
135
136
119
98
97
79
72
-1
EOF
